c
c start with comments
c
p cnf 49 37
-40 -5 45 0
28 37 0
-26 -6 -24 0
-5 43 -14 0
-26 -49 50 0
-47 20 -45 0
-43 -16 0
31 -11 0
-4 6 6 0
32 -39 -5 0
53 -21 0
-37 -48 0
38 48 0
13 46 15 0
22 47 0
-8 36 -7 0
12 34 -40 0
51 14 0
-34 -13 -40 0
-10 9 -35 11 18 -54 0
-33 -33 -14 -40 0
4 -18 0
-44 -25 0
-12 7 0
9 24 10 0
-52 2 0
52 12 -34 0
33 -30 35 0
-17 36 24 27 8 0
-35 -20 43 0
21 50 -33 0
-2 -31 0
10 -8 23 12 0
-15 1 0
20 36 -22 -40 32 0
25 -53 0
-51 49 0